
  20    0


   0  10 2 3 4 5 6 7 8 9 18 19 
   4   4 17 16 12 10 
   7   3 15 13 11 
   7   2 11 10 
   3   2 13 10 
   9   1 14 
   9   1 12 
  10   1 11 
   5   1 10 
   3   1 20
  10   1 20
   8   1 20
   7   1 20
   5   1 20
  10   1 20
   3   1 20
   8   1 20
   2   1 20
   5   1 20
   0   0 
